c preprocessed version of graph05, 85 vertices, 386 edges
p td 85 386
0 1
0 2
0 10
0 3
0 75
0 9
44 0
1 2
1 10
73 1
44 1
2 3
2 75
3 4
3 8
44 3
5 4
28 4
6 4
7 4
27 4
29 4
13 4
4 25
31 4
72 4
5 6
5 28
5 27
5 29
5 39
5 26
32 5
7 6
6 27
69 6
7 8
7 29
7 26
67 7
9 8
75 8
8 13
9 10
9 75
44 9
61 9
33 9
10 11
44 10
11 12
11 14
11 57
11 23
11 13
11 24
73 11
58 11
71 11
12 13
12 24
14 12
12 57
12 23
12 36
58 12
68 12
70 12
14 13
13 24
57 13
23 13
58 13
14 15
28 14
14 24
14 57
14 23
58 14
16 15
18 15
19 15
15 36
66 15
71 15
16 17
16 19
16 18
16 20
16 36
16 35
60 16
65 16
70 16
17 18
58 17
71 17
34 17
19 18
35 18
18 36
40 18
66 18
19 20
19 35
34 19
21 20
50 20
35 20
20 36
64 20
48 20
69 20
72 20
21 22
39 21
21 41
21 42
43 21
45 21
46 21
23 22
32 22
37 22
64 22
73 22
58 22
23 24
57 23
52 23
58 23
71 23
24 25
57 24
38 24
51 24
58 24
26 25
60 25
59 25
74 25
65 25
27 26
29 26
28 27
47 27
28 29
30 28
30 31
30 47
48 30
30 55
30 67
30 56
66 30
32 31
64 31
73 31
33 32
49 32
32 64
32 73
34 33
33 68
33 65
33 69
33 70
33 71
33 72
33 66
34 35
34 68
69 34
65 34
66 34
70 34
71 34
72 34
35 36
36 37
65 36
38 37
52 37
51 37
50 37
54 37
53 37
49 37
48 37
39 38
49 38
38 52
50 38
38 53
48 38
40 39
39 41
39 42
43 39
46 39
61 39
67 39
40 41
40 44
40 43
40 46
40 45
47 40
42 41
45 41
43 42
45 42
46 42
43 44
43 45
43 46
45 44
46 44
45 46
48 47
47 59
47 55
47 67
47 56
66 47
48 49
48 51
48 53
48 54
55 48
67 48
56 48
66 48
49 50
64 49
49 54
73 49
55 49
71 49
50 51
50 54
51 52
54 51
51 53
55 51
53 52
54 53
55 56
55 67
66 55
56 57
67 56
56 63
66 56
58 57
66 57
72 57
58 59
58 61
58 62
58 63
58 74
59 60
59 62
59 63
59 61
59 74
61 60
62 60
74 60
61 62
61 63
61 74
62 63
62 74
63 64
63 74
65 64
64 73
65 66
68 65
69 65
65 70
65 71
65 72
66 67
68 66
69 66
66 70
66 71
66 72
68 69
68 70
68 71
68 72
69 70
69 71
69 72
70 71
70 72
71 72
76 77
76 78
76 79
76 81
76 82
76 83
76 0
76 22
76 49
76 32
76 31
76 64
76 73
76 59
76 60
76 61
76 62
76 80
77 1
77 2
77 16
77 84
77 78
77 79
77 82
77 83
77 81
77 80
78 15
78 81
78 44
78 83
78 82
78 79
78 80
79 32
79 81
79 83
79 29
79 82
79 80
80 81
80 82
80 83
80 4
80 5
80 26
80 27
80 28
81 11
81 12
81 13
81 14
81 15
81 23
81 24
81 28
81 57
81 58
81 82
81 83
82 84
82 12
82 83
82 33
83 84
83 4
83 41
83 46
84 76
84 78
84 79
84 80
84 81
84 14
84 19
84 22
84 31
84 40
84 32
84 64
84 73
84 43
84 33
84 68
